\ENCODING=ISO-8859-1
\Problem name: 

Maximize
 obj: 11 x1 + 10 x2 + 12 x3 + 13 x4 + 14 x5 + 10 x6 + 11 x7 + 10 x8 + 12 x9
      + 11 x10 + 11 x11 + 10 x12 + 10 x13 + 15 x14 + 11 x15 + 12 x16 + 12 x17
      + 9 x18 + 11 x19 + 10 x20
Subject To
 c1: 11 x1 + 15 x2 + 11 x3 + 9 x4 + 8 x5 + 7 x6 + 11 x7 + 12 x8 + 11 x9
     + 10 x10 + 10 x11 + 10 x12 + 14 x13 + 11 x14 + 8 x15 + 7 x16 + 11 x17
     + 13 x18 + 14 x19 + 8 x20 <= 40
 c2: 3 x1 + 8 x2 + 8 x3 + 7 x4 + 3 x5 + 2 x6 + 3 x7 + 3 x8 + 5 x9 + 3 x10
     + 4 x11 + 5 x12 + 4 x13 + 6 x14 + 5 x15 + 2 x16 + 7 x17 + 2 x18 + 6 x19
     + 6 x20 <= 30
Bounds
 0 <= x1 <= 1
 0 <= x2 <= 1
 0 <= x3 <= 1
 0 <= x4 <= 1
 0 <= x5 <= 1
 0 <= x6 <= 1
 0 <= x7 <= 1
 0 <= x8 <= 1
 0 <= x9 <= 1
 0 <= x10 <= 1
 0 <= x11 <= 1
 0 <= x12 <= 1
 0 <= x13 <= 1
 0 <= x14 <= 1
 0 <= x15 <= 1
 0 <= x16 <= 1
 0 <= x17 <= 1
 0 <= x18 <= 1
 0 <= x19 <= 1
 0 <= x20 <= 1
Binaries
 x1  x2  x3  x4  x5  x6  x7  x8  x9  x10  x11  x12  x13  x14  x15  x16  x17 
 x18  x19  x20 
End
